&BANDS
  prefix = 'silicon'
  outdir = './'
  filband = 'si_bands.dat'
/
