&control
    calculation = 'bands'
    prefix = 'silicon'
    outdir = './'
    pseudo_dir ='/home/karan/pseudos'
    etot_conv_thr = 1e-5
    forc_conv_thr = 1e-4
/

&system
    ibrav=2, celldm(1) =10.35,
    nat=2, ntyp=1,
    ecutwfc=30
    ecutrho = 200
    nbnd = 8
/

&electrons
    conv_thr=1e-8
/

ATOMIC_SPECIES
  Si  28.0855  Si.pbe-n-kjpaw_psl.1.0.0.UPF

ATOMIC_POSITIONS (alat)
Si            0.0000000000        0.0000000000        0.0000000000
Si            0.2500000000        0.2500000000        0.2500000000

K_POINTS {crystal_b}
5
  0.0000 0.5000 0.0000 20  !L
  0.0000 0.0000 0.0000 30  !G
  -0.500 0.0000 -0.500 10  !X
  -0.375 0.2500 -0.375 30  !U
  0.0000 0.0000 0.0000 20  !G


