 
 &PROJWFC
   prefix= 'silicon',
   outdir= './',
   filpdos= 'pdos.dat'
 /
