 &control
    calculation = 'scf',
    prefix = 'silicon'
    outdir = './'
    pseudo_dir ='/home/karan/pseudos'
 /
 &system
    ibrav =  2,
    celldm(1) = 10.61190700000000000000,
    nat =  2,
    ntyp = 1,
    ecutwfc = 30
 /
 &electrons
    mixing_beta = 0.6
 /

ATOMIC_SPECIES
 Si 28.086  Si.pbe-n-kjpaw_psl.1.0.0.UPF

ATOMIC_POSITIONS (alat)
 Si 0.0 0.0 0.0
 Si 0.25 0.25 0.25

K_POINTS (automatic)
  6 6 6 1 1 1

