&INPUTPH
  outdir = './'
  prefix = 'silicon'
  tr2_ph = 1d-12
  ldisp = .true.
  amass(1)=28.0855
  recover = .true.
  nq1 = 2
  nq2 = 2
  nq3 = 2
  fildyn = 'silicon.dyn'
/
